NAME PortOpt_n10_m4_inst_1
ROWS
 N  OBJ
 E  budget  
 G  return  
 L  uncertain_risk
 L  fixed_risk
COLUMNS
    asset[0]  budget    1
    asset[0]  return    2.3894775978070633e+000
    asset[1]  budget    1
    asset[1]  return    3.0353618106858091e+000
    asset[2]  budget    1
    asset[2]  return    2.8488651176220570e+000
    asset[3]  budget    1
    asset[3]  return    4.9421581974130309e+000
    asset[4]  budget    1
    asset[4]  return    3.4105679429457405e+000
    asset[5]  budget    1
    asset[5]  return    2.9811787436382233e+000
    asset[6]  budget    1
    asset[6]  return    2.1291301109094549e+000
    asset[7]  budget    1
    asset[7]  return    1.3246452091429108e+000
    asset[8]  budget    1
    asset[8]  return    3.4276133751641300e+000
    asset[9]  budget    1
    asset[9]  return    3.2271767562442117e+000
    return_var  OBJ       -1
    return_var  return    -1
    uncertain_risk_var  OBJ       1
    uncertain_risk_var  uncertain_risk  -1
    fixed_risk_var  OBJ       1
    fixed_risk_var  fixed_risk  -1
RHS
    RHS1      budget    1
BOUNDS
QCMATRIX   uncertain_risk
    asset[0]  asset[0]  6.0939286871264653e-002
    asset[0]  asset[1]  8.8182193113386896e-003
    asset[1]  asset[0]  8.8182193113386896e-003
    asset[0]  asset[2]  1.2591087132502930e-002
    asset[2]  asset[0]  1.2591087132502930e-002
    asset[0]  asset[3]  -3.1973556881911544e-002
    asset[3]  asset[0]  -3.1973556881911544e-002
    asset[0]  asset[4]  -3.4516620787824207e-002
    asset[4]  asset[0]  -3.4516620787824207e-002
    asset[0]  asset[5]  -3.4893061661382077e-002
    asset[5]  asset[0]  -3.4893061661382077e-002
    asset[0]  asset[6]  6.3687029177919824e-002
    asset[6]  asset[0]  6.3687029177919824e-002
    asset[0]  asset[7]  -1.9886979289774936e-002
    asset[7]  asset[0]  -1.9886979289774936e-002
    asset[0]  asset[8]  -3.2193034173097032e-002
    asset[8]  asset[0]  -3.2193034173097032e-002
    asset[0]  asset[9]  -2.9739566369607921e-003
    asset[9]  asset[0]  -2.9739566369607921e-003
    asset[1]  asset[1]  2.9294805971062394e-002
    asset[1]  asset[2]  1.0069727682742967e-002
    asset[2]  asset[1]  1.0069727682742967e-002
    asset[1]  asset[3]  -3.7867064706938319e-002
    asset[3]  asset[1]  -3.7867064706938319e-002
    asset[1]  asset[4]  -5.6582827582758316e-003
    asset[4]  asset[1]  -5.6582827582758316e-003
    asset[1]  asset[5]  -6.2184920376885250e-003
    asset[5]  asset[1]  -6.2184920376885250e-003
    asset[1]  asset[6]  8.0240930966504441e-003
    asset[6]  asset[1]  8.0240930966504441e-003
    asset[1]  asset[7]  3.1794605516230132e-002
    asset[7]  asset[1]  3.1794605516230132e-002
    asset[1]  asset[8]  -1.9269516448382189e-002
    asset[8]  asset[1]  -1.9269516448382189e-002
    asset[1]  asset[9]  -2.4234409589567015e-002
    asset[9]  asset[1]  -2.4234409589567015e-002
    asset[2]  asset[2]  6.1866770439666218e-003
    asset[2]  asset[3]  -1.8457712069353101e-002
    asset[3]  asset[2]  -1.8457712069353101e-002
    asset[2]  asset[4]  -2.2481889222293497e-003
    asset[4]  asset[2]  -2.2481889222293497e-003
    asset[2]  asset[5]  -5.5439891778879414e-003
    asset[5]  asset[2]  -5.5439891778879414e-003
    asset[2]  asset[6]  1.1224758691431889e-002
    asset[6]  asset[2]  1.1224758691431889e-002
    asset[2]  asset[7]  6.0955557004365793e-003
    asset[7]  asset[2]  6.0955557004365793e-003
    asset[2]  asset[8]  -1.2398501193522676e-002
    asset[8]  asset[2]  -1.2398501193522676e-002
    asset[2]  asset[9]  -8.6358114463571146e-003
    asset[9]  asset[2]  -8.6358114463571146e-003
    asset[3]  asset[3]  6.0380517530479856e-002
    asset[3]  asset[4]  1.0445770780439716e-002
    asset[4]  asset[3]  1.0445770780439716e-002
    asset[3]  asset[5]  1.7787715255576084e-002
    asset[5]  asset[3]  1.7787715255576084e-002
    asset[3]  asset[6]  -3.0453001929058733e-002
    asset[6]  asset[3]  -3.0453001929058733e-002
    asset[3]  asset[7]  -3.2498150938548236e-002
    asset[7]  asset[3]  -3.2498150938548236e-002
    asset[3]  asset[8]  3.4950051980376824e-002
    asset[8]  asset[3]  3.4950051980376824e-002
    asset[3]  asset[9]  3.2227402888457032e-002
    asset[9]  asset[3]  3.2227402888457032e-002
    asset[4]  asset[4]  4.2651987921606550e-002
    asset[4]  asset[5]  3.0780061242783069e-002
    asset[5]  asset[4]  3.0780061242783069e-002
    asset[4]  asset[6]  -4.4642321684792000e-002
    asset[6]  asset[4]  -4.4642321684792000e-002
    asset[4]  asset[7]  8.1115226389661798e-003
    asset[7]  asset[4]  8.1115226389661798e-003
    asset[4]  asset[8]  9.8401522102043240e-003
    asset[8]  asset[4]  9.8401522102043240e-003
    asset[4]  asset[9]  -1.4089170463307890e-003
    asset[9]  asset[4]  -1.4089170463307890e-003
    asset[5]  asset[5]  2.9420360953806585e-002
    asset[5]  asset[6]  -4.3654588766389966e-002
    asset[6]  asset[5]  -4.3654588766389966e-002
    asset[5]  asset[7]  3.6134311505164832e-003
    asset[7]  asset[5]  3.6134311505164832e-003
    asset[5]  asset[8]  1.0014935917983695e-002
    asset[8]  asset[5]  1.0014935917983695e-002
    asset[5]  asset[9]  3.0956182221220040e-003
    asset[9]  asset[5]  3.0956182221220040e-003
    asset[6]  asset[6]  7.2188764309408335e-002
    asset[6]  asset[7]  -1.7447083069109817e-002
    asset[7]  asset[6]  -1.7447083069109817e-002
    asset[6]  asset[8]  -2.6088859157531386e-002
    asset[8]  asset[6]  -2.6088859157531386e-002
    asset[6]  asset[9]  -2.3511547769692826e-003
    asset[9]  asset[6]  -2.3511547769692826e-003
    asset[7]  asset[7]  5.6170773392349362e-002
    asset[7]  asset[8]  -5.9015930342456644e-004
    asset[8]  asset[7]  -5.9015930342456644e-004
    asset[7]  asset[9]  -3.0799603398734870e-002
    asset[9]  asset[7]  -3.0799603398734870e-002
    asset[8]  asset[8]  3.3628978604505338e-002
    asset[8]  asset[9]  1.2865650718559964e-002
    asset[9]  asset[8]  1.2865650718559964e-002
    asset[9]  asset[9]  2.2048367722341561e-002
QCMATRIX   fixed_risk
    asset[0]  asset[0]  5.8958978092586694e-003
    asset[1]  asset[1]  2.5920278966069287e-003
    asset[2]  asset[2]  6.5539754359542676e-004
    asset[3]  asset[3]  5.8836809241766012e-003
    asset[4]  asset[4]  3.9281183890741830e-003
    asset[5]  asset[5]  2.4285097741787486e-003
    asset[6]  asset[6]  7.2716511774335224e-003
    asset[7]  asset[7]  6.8075417125733522e-003
    asset[8]  asset[8]  3.3075851962873770e-003
    asset[9]  asset[9]  2.1284712003736251e-003
ENDATA
